c description: Random 3-CNF over 16 variables and 80 clauses
p cnf 16 80
8 -12 14 0
6 -11 -14 0
-3 -5 13 0
1 5 -6 0
-4 -8 -11 0
-3 5 -8 0
-9 -11 -16 0
8 12 -14 0
4 -15 -16 0
-3 10 -16 0
4 5 -13 0
4 -7 14 0
2 -11 -13 0
1 -3 11 0
-1 6 7 0
-2 15 16 0
-1 -5 -16 0
-2 6 13 0
-11 -14 15 0
3 -7 -11 0
-5 6 10 0
-2 -6 -7 0
-2 9 13 0
-1 3 -5 0
-1 4 5 0
-9 13 16 0
-5 -7 -11 0
9 -12 13 0
1 -6 10 0
12 -13 15 0
7 11 15 0
6 10 14 0
-4 5 -10 0
-2 4 13 0
8 -9 -12 0
2 -3 -11 0
-7 8 9 0
-1 -2 9 0
4 -7 8 0
1 10 16 0
9 -11 -13 0
-1 10 -16 0
-2 11 16 0
7 -13 -16 0
1 2 3 0
4 -11 -16 0
10 -11 -16 0
3 7 -9 0
3 6 13 0
-6 7 -9 0
3 6 9 0
4 7 10 0
-1 -6 16 0
6 -10 13 0
5 -14 -16 0
-7 -10 -11 0
1 -5 9 0
1 10 -16 0
-4 8 12 0
-5 6 -11 0
-1 -4 14 0
-4 -13 16 0
-7 8 -11 0
7 10 12 0
7 -11 12 0
2 9 -13 0
7 11 -15 0
-2 4 -7 0
3 -7 -9 0
-6 -9 -11 0
10 -12 16 0
-2 -8 16 0
-2 -4 -8 0
-1 -10 13 0
-7 9 -14 0
1 6 -8 0
-2 -6 -12 0
-1 -4 6 0
-1 -11 -14 0
-5 13 14 0